11 11
7
3 3 5 8
3 4 5 4
3 5 8 6
3 6 8 0
5 3 0 8
5 4 0 4
8 4 0 0
% time elapsed: 0.09 s
% time elapsed: 0.09 s
%%%mzn-stat: initTime=0.000244
%%%mzn-stat: solveTime=0.000484
%%%mzn-stat: solutions=14
%%%mzn-stat: variables=15
%%%mzn-stat: propagators=12
%%%mzn-stat: propagations=1074
%%%mzn-stat: nodes=152
%%%mzn-stat: failures=41
%%%mzn-stat: restarts=0
%%%mzn-stat: peakDepth=16
%%%mzn-stat-end
